c SAT Generator for power-law distributed variable frequencies
c -g u -v 20 -c 91 -k 3 -p 2.750000 -b 3.200000 -f /home/schmidt/Devel/ni-kop-sat/data/ensemble/ruf20-91/ruf20-91-884 -u 1 -U 1 -s 3953759367
p cnf 20 91
9 15 18 0
-3 -5 -8 0
3 9 18 0
6 8 -14 0
1 -2 -15 0
2 -9 -19 0
8 10 -13 0
-2 -7 -11 0
4 11 15 0
4 7 15 0
-10 12 20 0
2 -3 12 0
2 -10 17 0
3 -13 -16 0
-17 18 -20 0
11 14 19 0
1 -14 -16 0
-2 3 19 0
-2 -15 16 0
10 12 -14 0
9 14 -15 0
-4 -10 -19 0
-7 12 -18 0
6 -8 11 0
-4 15 19 0
5 10 20 0
-2 -3 -17 0
-2 -5 15 0
-6 8 13 0
-1 15 -17 0
5 12 -15 0
5 -6 -17 0
-2 -8 17 0
-2 -17 -19 0
-4 7 -14 0
-6 -17 18 0
-9 17 -18 0
4 -14 20 0
3 -5 9 0
-2 -15 -16 0
-13 -17 20 0
1 -8 17 0
3 8 -17 0
-9 -13 19 0
3 -12 -18 0
-2 4 10 0
-2 4 17 0
1 13 18 0
-5 -14 19 0
8 -14 -18 0
-15 17 -19 0
11 12 -13 0
-2 5 18 0
8 -14 -16 0
-7 9 18 0
6 -14 -16 0
-3 -4 -7 0
1 -11 -20 0
1 -13 14 0
-11 -12 19 0
-2 4 -9 0
6 17 -18 0
-2 14 20 0
6 9 -18 0
-6 -14 -20 0
1 8 -20 0
-6 11 12 0
-2 -19 -20 0
-6 7 -18 0
-1 13 15 0
10 -11 -13 0
-2 -7 10 0
6 -7 -11 0
-11 -18 -19 0
-3 -10 -18 0
2 9 16 0
8 -9 -12 0
5 11 -19 0
2 -6 19 0
-15 17 20 0
4 -5 -13 0
-1 5 -17 0
6 8 12 0
3 -18 -19 0
-16 -18 19 0
5 -11 -14 0
-5 10 15 0
2 -6 20 0
-3 10 14 0
6 11 -20 0
9 10 -13 0
